knapPI_6_1000_10000_540
n 1000
c 4633119
z 4633119
time 6.1
1,4630,4630,1
2,6014,6014,1
3,7520,7520,1
4,7116,7116,1
5,8523,8523,1
6,3527,3527,1
7,8951,8951,1
8,1403,1403,1
9,6127,6127,1
10,2901,2901,1
11,6333,6333,1
12,5389,5389,1
13,20,20,1
14,9829,9829,1
15,2187,2187,1
16,5911,5911,1
17,9451,9451,1
18,4090,4090,1
19,5968,5968,1
20,6404,6404,1
21,3292,3292,1
22,1073,1073,1
23,1612,1612,1
24,3850,3850,1
25,5739,5739,1
26,602,602,1
27,5247,5247,1
28,8679,8679,1
29,5694,5694,1
30,6086,6086,1
31,5534,5534,1
32,7888,7888,1
33,2137,2137,1
34,6788,6788,1
35,7527,7527,1
36,4281,4281,1
37,8770,8770,1
38,2867,2867,1
39,6589,6589,1
40,7540,7540,1
41,9471,9471,1
42,5270,5270,1
43,6824,6824,1
44,3467,3467,1
45,3794,3794,1
46,4071,4071,1
47,198,198,1
48,3127,3127,1
49,3388,3388,1
50,6121,6121,1
51,6782,6782,1
52,7663,7663,1
53,6369,6369,1
54,1378,1378,1
55,2220,2220,1
56,5148,5148,1
57,8067,8067,1
58,7661,7661,1
59,3734,3734,1
60,8047,8047,1
61,4971,4971,1
62,6001,6001,1
63,8813,8813,1
64,9580,9580,1
65,1691,1691,1
66,4656,4656,1
67,271,271,1
68,9910,9910,1
69,7133,7133,1
70,1974,1974,1
71,2227,2227,1
72,4520,4520,1
73,6246,6246,1
74,585,585,1
75,3148,3148,1
76,7347,7347,1
77,9288,9288,1
78,5317,5317,1
79,2668,2668,1
80,4366,4366,1
81,8542,8542,1
82,2237,2237,1
83,3244,3244,1
84,2934,2934,1
85,6601,6601,1
86,9793,9793,1
87,4691,4691,1
88,8771,8771,1
89,7825,7825,1
90,9920,9920,1
91,7804,7804,1
92,6460,6460,1
93,403,403,1
94,3406,3406,1
95,296,296,1
96,8757,8757,1
97,578,578,1
98,1785,1785,1
99,9203,9203,1
100,962,962,1
101,4579,4579,1
102,1687,1687,1
103,1046,1046,1
104,6903,6903,1
105,8098,8098,1
106,7852,7852,1
107,8037,8037,1
108,191,191,1
109,8999,8999,1
110,4361,4361,1
111,4376,4376,1
112,9589,9589,1
113,8368,8368,1
114,9467,9467,1
115,7665,7665,1
116,9748,9748,1
117,9692,9692,1
118,6553,6553,1
119,754,754,1
120,9371,9371,1
121,9960,9960,1
122,1569,1569,1
123,6971,6971,1
124,9349,9349,1
125,5070,5070,1
126,8334,8334,1
127,6281,6281,1
128,9214,9214,1
129,2696,2696,1
130,2254,2254,1
131,4785,4785,1
132,5972,5972,1
133,46,46,1
134,7202,7202,1
135,913,913,1
136,6944,6944,1
137,9599,9599,1
138,68,68,1
139,5904,5904,1
140,1685,1685,1
141,3714,3714,1
142,7297,7297,1
143,9781,9781,1
144,680,680,1
145,3706,3706,1
146,3033,3033,1
147,8729,8729,1
148,2842,2842,1
149,361,361,1
150,1090,1090,1
151,7286,7286,1
152,718,718,1
153,1438,1438,1
154,5876,5876,1
155,8525,8525,1
156,7178,7178,1
157,8863,8863,1
158,2295,2295,1
159,4056,4056,1
160,5947,5947,1
161,4105,4105,1
162,8989,8989,1
163,6257,6257,1
164,641,641,1
165,8215,8215,1
166,5225,5225,1
167,8445,8445,1
168,2043,2043,1
169,4247,4247,1
170,477,477,1
171,6771,6771,1
172,1537,1537,1
173,8051,8051,1
174,5185,5185,1
175,9606,9606,1
176,5889,5889,1
177,1358,1358,1
178,2070,2070,1
179,4654,4654,1
180,2241,2241,1
181,9428,9428,1
182,3638,3638,1
183,3466,3466,1
184,7343,7343,1
185,9913,9913,1
186,1580,1580,1
187,5837,5837,1
188,5708,5708,1
189,2643,2643,1
190,6389,6389,1
191,715,715,1
192,5284,5284,1
193,3093,3093,1
194,5715,5715,1
195,3298,3298,1
196,3668,3668,1
197,4008,4008,1
198,2878,2878,1
199,8302,8302,1
200,2272,2272,1
201,4416,4416,1
202,3982,3982,1
203,370,370,1
204,5202,5202,1
205,2875,2875,1
206,365,365,1
207,5184,5184,1
208,5214,5214,1
209,6337,6337,1
210,2186,2186,1
211,8436,8436,1
212,1976,1976,1
213,3164,3164,1
214,5824,5824,1
215,8528,8528,1
216,9050,9050,1
217,7766,7766,1
218,749,749,1
219,3619,3619,1
220,1233,1233,1
221,6389,6389,1
222,6794,6794,1
223,777,777,1
224,1901,1901,1
225,8369,8369,1
226,5942,5942,1
227,3001,3001,1
228,4113,4113,1
229,269,269,1
230,4776,4776,1
231,8982,8982,1
232,5444,5444,1
233,6858,6858,1
234,5140,5140,1
235,8291,8291,1
236,9174,9174,1
237,1910,1910,1
238,544,544,1
239,6941,6941,1
240,7116,7116,1
241,1245,1245,1
242,8391,8391,1
243,1423,1423,1
244,6898,6898,1
245,526,526,1
246,5894,5894,1
247,1354,1354,1
248,8639,8639,1
249,5801,5801,1
250,7031,7031,1
251,5834,5834,1
252,4449,4449,1
253,3509,3509,1
254,1795,1795,1
255,6209,6209,1
256,9567,9567,1
257,4386,4386,1
258,9766,9766,1
259,2152,2152,1
260,646,646,1
261,5261,5261,1
262,7987,7987,1
263,8424,8424,1
264,9176,9176,1
265,9272,9272,1
266,2376,2376,1
267,2371,2371,1
268,6392,6392,1
269,970,970,1
270,1580,1580,1
271,8946,8946,1
272,1043,1043,1
273,3493,3493,1
274,4868,4868,1
275,4840,4840,1
276,9517,9517,1
277,4640,4640,1
278,51,51,1
279,2346,2346,1
280,6273,6273,1
281,6441,6441,1
282,6559,6559,1
283,8655,8655,1
284,9665,9665,1
285,9050,9050,1
286,652,652,1
287,8924,8924,1
288,1868,1868,1
289,6438,6438,1
290,6248,6248,1
291,5353,5353,1
292,557,557,1
293,8048,8048,1
294,8409,8409,1
295,6236,6236,1
296,3890,3890,1
297,5147,5147,1
298,5734,5734,1
299,5410,5410,1
300,569,569,1
301,3567,3567,1
302,2726,2726,1
303,2630,2630,1
304,7554,7554,1
305,6470,6470,1
306,6749,6749,1
307,5329,5329,1
308,5578,5578,1
309,9230,9230,1
310,4986,4986,1
311,2531,2531,1
312,7808,7808,1
313,8635,8635,1
314,3413,3413,1
315,5147,5147,1
316,200,200,1
317,1891,1891,1
318,7994,7994,1
319,402,402,1
320,6533,6533,1
321,5020,5020,1
322,4449,4449,1
323,5662,5662,1
324,3065,3065,1
325,9454,9454,1
326,9825,9825,1
327,2237,2237,1
328,3571,3571,1
329,9742,9742,1
330,4891,4891,1
331,2683,2683,1
332,9406,9406,1
333,7559,7559,1
334,5635,5635,1
335,4625,4625,1
336,6004,6004,1
337,9427,9427,1
338,5033,5033,1
339,180,180,1
340,727,727,1
341,298,298,1
342,8973,8973,1
343,2582,2582,1
344,2297,2297,1
345,116,116,1
346,1546,1546,1
347,7234,7234,1
348,62,62,1
349,3541,3541,1
350,3971,3971,1
351,3739,3739,1
352,2550,2550,1
353,3414,3414,1
354,4664,4664,1
355,4290,4290,1
356,9315,9315,1
357,5823,5823,1
358,3236,3236,1
359,6985,6985,1
360,1562,1562,1
361,8362,8362,1
362,5696,5696,1
363,2341,2341,1
364,3881,3881,1
365,607,607,1
366,4030,4030,1
367,3115,3115,1
368,2978,2978,1
369,609,609,1
370,6313,6313,1
371,6024,6024,1
372,4420,4420,1
373,9947,9947,1
374,3693,3693,1
375,3202,3202,1
376,8319,8319,1
377,2879,2879,1
378,9391,9391,1
379,842,842,1
380,4033,4033,1
381,5912,5912,1
382,328,328,1
383,3620,3620,1
384,6478,6478,1
385,3821,3821,1
386,1754,1754,1
387,4918,4918,1
388,10,10,1
389,1199,1199,1
390,7257,7257,1
391,2941,2941,1
392,9059,9059,1
393,6272,6272,1
394,1939,1939,1
395,425,425,1
396,8111,8111,1
397,2145,2145,1
398,6395,6395,1
399,3526,3526,1
400,6023,6023,1
401,3100,3100,1
402,7418,7418,1
403,8133,8133,1
404,5226,5226,1
405,6699,6699,1
406,141,141,1
407,4225,4225,1
408,6535,6535,1
409,5768,5768,1
410,1421,1421,1
411,1569,1569,1
412,6918,6918,1
413,1007,1007,1
414,2623,2623,1
415,2862,2862,1
416,1842,1842,1
417,9915,9915,1
418,2644,2644,1
419,8422,8422,1
420,3139,3139,1
421,9552,9552,1
422,5770,5770,1
423,5055,5055,1
424,5436,5436,1
425,4603,4603,1
426,7451,7451,1
427,7634,7634,1
428,6807,6807,1
429,6552,6552,1
430,4953,4953,1
431,2432,2432,1
432,9007,9007,1
433,5548,5548,1
434,5938,5938,1
435,215,215,1
436,6411,6411,1
437,5077,5077,1
438,9634,9634,1
439,1493,1493,1
440,2172,2172,1
441,6714,6714,1
442,3156,3156,1
443,3065,3065,1
444,8583,8583,1
445,2839,2839,1
446,2206,2206,1
447,2496,2496,1
448,7646,7646,1
449,1028,1028,1
450,9793,9793,1
451,3559,3559,1
452,5365,5365,1
453,3395,3395,1
454,2163,2163,1
455,332,332,1
456,9572,9572,1
457,9140,9140,1
458,1181,1181,1
459,4915,4915,1
460,9122,9122,1
461,5933,5933,1
462,5488,5488,1
463,1285,1285,1
464,7583,7583,1
465,6632,6632,1
466,1526,1526,1
467,2399,2399,1
468,8866,8866,1
469,1807,1807,1
470,7168,7168,1
471,421,421,1
472,9571,9571,1
473,6238,6238,1
474,6070,6070,1
475,4725,4725,1
476,3891,3891,1
477,3935,3935,1
478,113,113,1
479,9269,9269,1
480,6678,6678,1
481,7538,7538,1
482,2993,2993,1
483,8528,8528,1
484,7105,7105,1
485,6822,6822,1
486,8816,8816,1
487,2431,2431,1
488,8321,8321,1
489,4563,4563,1
490,277,277,1
491,1644,1644,1
492,3556,3556,1
493,2460,2460,1
494,4163,4163,1
495,8795,8795,1
496,8339,8339,1
497,1382,1382,1
498,2909,2909,1
499,8687,8687,1
500,4668,4668,1
501,7766,7766,1
502,499,499,1
503,762,762,1
504,3314,3314,1
505,5874,5874,1
506,1481,1481,1
507,449,449,1
508,2142,2142,1
509,8861,8861,1
510,4886,4886,1
511,9116,9116,1
512,6836,6836,1
513,5886,5886,1
514,9610,9610,1
515,9876,9876,1
516,2524,2524,1
517,8530,8530,1
518,931,931,1
519,6563,6563,1
520,8290,8290,1
521,353,353,1
522,7189,7189,1
523,2048,2048,1
524,6616,6616,1
525,9319,9319,1
526,2644,2644,1
527,3856,3856,1
528,6031,6031,1
529,2675,2675,1
530,5551,5551,1
531,1136,1136,1
532,89,89,1
533,7213,7213,1
534,4571,4571,1
535,787,787,1
536,5171,5171,1
537,4636,4636,1
538,4747,4747,1
539,829,829,1
540,7690,7690,1
541,9491,9491,1
542,3502,3502,1
543,7037,7037,1
544,2297,2297,1
545,5804,5804,1
546,7434,7434,1
547,7333,7333,1
548,3941,3941,1
549,1129,1129,1
550,8388,8388,1
551,2781,2781,1
552,3472,3472,1
553,1138,1138,1
554,158,158,1
555,5362,5362,1
556,327,327,1
557,9821,9821,1
558,6348,6348,1
559,8575,8575,1
560,7618,7618,1
561,4409,4409,1
562,1900,1900,1
563,6586,6586,1
564,3788,3788,1
565,270,270,1
566,2116,2116,1
567,9899,9899,1
568,8185,8185,1
569,2034,2034,1
570,2504,2504,1
571,3691,3691,1
572,2177,2177,1
573,8803,8803,1
574,1154,1154,1
575,7394,7394,1
576,9994,9994,1
577,8697,8697,1
578,8833,8833,1
579,6881,6881,1
580,7596,7596,1
581,5106,5106,1
582,5750,5750,1
583,9708,9708,1
584,6303,6303,1
585,1990,1990,1
586,1379,1379,1
587,3426,3426,1
588,6628,6628,1
589,365,365,1
590,7181,7181,1
591,7278,7278,1
592,4805,4805,1
593,2302,2302,1
594,5593,5593,1
595,6231,6231,1
596,2426,2426,1
597,9952,9952,1
598,7465,7465,1
599,3635,3635,1
600,6088,6088,1
601,6385,6385,1
602,99,99,1
603,1085,1085,1
604,3448,3448,1
605,2235,2235,1
606,6141,6141,1
607,8820,8820,1
608,8698,8698,1
609,5282,5282,1
610,4099,4099,1
611,8210,8210,1
612,1521,1521,1
613,7498,7498,1
614,1459,1459,1
615,4648,4648,1
616,1153,1153,1
617,1183,1183,1
618,9667,9667,1
619,1475,1475,1
620,3857,3857,1
621,8171,8171,1
622,2581,2581,1
623,6348,6348,1
624,2860,2860,1
625,6214,6214,1
626,2149,2149,1
627,8079,8079,1
628,3384,3384,1
629,5863,5863,1
630,6273,6273,1
631,8244,8244,1
632,4698,4698,1
633,3634,3634,1
634,5302,5302,1
635,1652,1652,1
636,1873,1873,1
637,2236,2236,1
638,6251,6251,1
639,8681,8681,1
640,3200,3200,1
641,8763,8763,1
642,7385,7385,1
643,8912,8912,1
644,9958,9958,1
645,7933,7933,1
646,9308,9308,1
647,1226,1226,1
648,1614,1614,1
649,3073,3073,1
650,3789,3789,1
651,7853,7853,1
652,550,550,1
653,5193,5193,1
654,708,708,1
655,1108,1108,1
656,4062,4062,1
657,1887,1887,1
658,5309,5309,1
659,7736,7736,1
660,2328,2328,1
661,3183,3183,1
662,1758,1758,1
663,5824,5824,1
664,2807,2807,1
665,3145,3145,1
666,9634,9634,1
667,468,468,1
668,6673,6673,1
669,8030,8030,1
670,1314,1314,1
671,8243,8243,1
672,8999,8999,1
673,9051,9051,1
674,6601,6601,1
675,6532,6532,1
676,7067,7067,1
677,5348,5348,1
678,3315,3315,1
679,7601,7601,1
680,5580,5580,1
681,2283,2283,1
682,7048,7048,1
683,4290,4290,1
684,1727,1727,1
685,859,859,1
686,7507,7507,1
687,2241,2241,1
688,5128,5128,1
689,4369,4369,1
690,2309,2309,1
691,5614,5614,1
692,2449,2449,1
693,7718,7718,1
694,4089,4089,1
695,7812,7812,1
696,8556,8556,1
697,3610,3610,1
698,2899,2899,1
699,496,496,1
700,1677,1677,1
701,5983,5983,1
702,8527,8527,1
703,3715,3715,1
704,8169,8169,1
705,1581,1581,1
706,9409,9409,1
707,3522,3522,1
708,6717,6717,1
709,4418,4418,1
710,9577,9577,1
711,1703,1703,1
712,6281,6281,1
713,9205,9205,1
714,4601,4601,1
715,9686,9686,1
716,1374,1374,1
717,4855,4855,1
718,7834,7834,1
719,9959,9959,1
720,6185,6185,1
721,7484,7484,1
722,9462,9462,1
723,6130,6130,1
724,8593,8593,1
725,8420,8420,1
726,8195,8195,1
727,4495,4495,1
728,940,940,1
729,9323,9323,1
730,1714,1714,1
731,3852,3852,1
732,2160,2160,1
733,4444,4444,1
734,797,797,1
735,4468,4468,1
736,7225,7225,1
737,3706,3706,1
738,1257,1257,1
739,6154,6154,1
740,2474,2474,1
741,5397,5397,1
742,1491,1491,1
743,3995,3995,1
744,8012,8012,1
745,2356,2356,1
746,1474,1474,1
747,4104,4104,1
748,5717,5717,1
749,6652,6652,1
750,3399,3399,1
751,5719,5719,1
752,667,667,1
753,6365,6365,1
754,9483,9483,1
755,3355,3355,1
756,2282,2282,1
757,9175,9175,1
758,3632,3632,1
759,5939,5939,1
760,7111,7111,1
761,2755,2755,1
762,787,787,1
763,8938,8938,1
764,571,571,1
765,9320,9320,1
766,5803,5803,1
767,5042,5042,1
768,5442,5442,1
769,2731,2731,1
770,2153,2153,1
771,8459,8459,1
772,6522,6522,1
773,4265,4265,1
774,246,246,1
775,8300,8300,1
776,1407,1407,1
777,8201,8201,1
778,4322,4322,1
779,5113,5113,1
780,4769,4769,1
781,8840,8840,1
782,5353,5353,1
783,6112,6112,1
784,3907,3907,1
785,7927,7927,1
786,6871,6871,1
787,7373,7373,1
788,7003,7003,1
789,1871,1871,1
790,3858,3858,1
791,82,82,1
792,1898,1898,1
793,3237,3237,1
794,4286,4286,1
795,1938,1938,1
796,7326,7326,1
797,2666,2666,1
798,2504,2504,1
799,9234,9234,1
800,6649,6649,1
801,38,38,1
802,4458,4458,1
803,1350,1350,1
804,9878,9878,1
805,833,833,1
806,4765,4765,1
807,7484,7484,1
808,4591,4591,1
809,2781,2781,1
810,2701,2701,1
811,9454,9454,1
812,8828,8828,1
813,3959,3959,1
814,6262,6262,1
815,1011,1011,1
816,4479,4479,1
817,2652,2652,1
818,6838,6838,1
819,4190,4190,1
820,3462,3462,1
821,9617,9617,1
822,9413,9413,1
823,1609,1609,1
824,7248,7248,1
825,2433,2433,1
826,6851,6851,1
827,9250,9250,1
828,2954,2954,1
829,1705,1705,1
830,9889,9889,1
831,1075,1075,1
832,3298,3298,1
833,700,700,1
834,2824,2824,1
835,8633,8633,1
836,8801,8801,1
837,1842,1842,1
838,4162,4162,1
839,9795,9795,1
840,2404,2404,1
841,1657,1657,1
842,4752,4752,1
843,6472,6472,1
844,8181,8181,1
845,9908,9908,1
846,8429,8429,1
847,6972,6972,1
848,3258,3258,1
849,9375,9375,1
850,5903,5903,1
851,6139,6139,1
852,1425,1425,1
853,1315,1315,1
854,5891,5891,1
855,4443,4443,1
856,6412,6412,1
857,4949,4949,1
858,32,32,1
859,2688,2688,1
860,6877,6877,1
861,7627,7627,1
862,7602,7602,1
863,936,936,1
864,8247,8247,1
865,3466,3466,1
866,6387,6387,1
867,387,387,1
868,5903,5903,1
869,8826,8826,1
870,8390,8390,1
871,321,321,1
872,7218,7218,1
873,8287,8287,1
874,1565,1565,1
875,3940,3940,1
876,2123,2123,1
877,4172,4172,1
878,9922,9922,1
879,5692,5692,1
880,3019,3019,1
881,9679,9679,1
882,763,763,1
883,7156,7156,1
884,2797,2797,1
885,2110,2110,1
886,9361,9361,1
887,1898,1898,1
888,2485,2485,1
889,6663,6663,1
890,6651,6651,1
891,4403,4403,1
892,5160,5160,1
893,499,499,1
894,9261,9261,1
895,1772,1772,1
896,5000,5000,1
897,1024,1024,1
898,4047,4047,1
899,3504,3504,1
900,4865,4865,1
901,2556,2556,1
902,7827,7827,1
903,6904,6904,1
904,5948,5948,1
905,3959,3959,1
906,2990,2990,1
907,3454,3454,1
908,6977,6977,1
909,8274,8274,1
910,3900,3900,1
911,3553,3553,1
912,8515,8515,1
913,7333,7333,1
914,2886,2886,1
915,8176,8176,1
916,915,915,1
917,7254,7254,1
918,2617,2617,1
919,1848,1848,1
920,6347,6347,1
921,3247,3247,1
922,6616,6616,1
923,9624,9624,1
924,2727,2727,1
925,2107,2107,1
926,5728,5728,1
927,7659,7659,1
928,4923,4923,1
929,5439,5439,1
930,4160,4160,1
931,8854,8854,1
932,834,834,1
933,9955,9955,1
934,5425,5425,1
935,7605,7605,1
936,2212,2212,1
937,3532,3532,1
938,8055,8055,1
939,8141,8141,1
940,6374,6374,1
941,7275,7275,1
942,740,740,1
943,8657,8657,1
944,7161,7161,1
945,5259,5259,1
946,7245,7245,1
947,4463,4463,1
948,5622,5622,1
949,1967,1967,1
950,895,895,1
951,6627,6627,1
952,2804,2804,1
953,2430,2430,1
954,6496,6496,1
955,6720,6720,1
956,5737,5737,1
957,5587,5587,1
958,7323,7323,1
959,6256,6256,1
960,8435,8435,1
961,7990,7990,1
962,5075,5075,1
963,6077,6077,1
964,3230,3230,1
965,3952,3952,1
966,8885,8885,1
967,4499,4499,1
968,7343,7343,1
969,459,459,1
970,1814,1814,1
971,183,183,1
972,3216,3216,1
973,3751,3751,1
974,1757,1757,1
975,642,642,1
976,649,649,1
977,8119,8119,1
978,3101,3101,1
979,7081,7081,1
980,6005,6005,1
981,892,892,1
982,2124,2124,1
983,7628,7628,1
984,5258,5258,1
985,4372,4372,1
986,4272,4272,1
987,1311,1311,1
988,4555,4555,1
989,6956,6956,1
990,7180,7180,1
991,1165,1165,1
992,9675,9675,1
993,3774,3774,1
994,8804,8804,1
995,4287,4287,1
996,3552,3552,1
997,8842,8842,1
998,1686,1686,1
999,6196,6196,1
1000,4876,4876,1
